/*********************************************
 * OPL 12.6.0.0 Data
 * Author: Adrian Rodriguez Bazaga, Pau Rodriguez Esmerats
 * Creation Date: 06/12/2017 at 23:05:02
 *********************************************/

nNurses=381;
maxConsec=2;
maxPresence=7;
maxHours=5;
minHours=1;
hours=24;
demand= [55 58 88 86 58 88 86 62 63 42 6 13 9 16 9 12 7 5 3 3 48 99 51 75  ];
